d1 = 1;
d2 = 1;
c1 = 500;
c2 = 500;
c3 = 500;

Nodes = array1d(1..100,[1, 2, 3, 4, 5, 6, 7, 8, 9, 10, 11, 12, 13, 14, 15, 16, 17, 18, 19, 20, 21, 22, 23, 24, 25, 26, 27, 28, 29, 30, 31, 32, 33, 34, 35, 36, 37, 38, 39, 40, 41, 42, 43, 44, 45, 46, 47, 48, 49, 50, 51, 52, 53, 54, 55, 56, 57, 58, 59, 60, 61, 62, 63, 64, 65, 66, 67, 68, 69, 70, 71, 72, 73, 74, 75, 76, 77, 78, 79, 80, 81, 82, 83, 84, 85, 86, 87, 88, 89, 90, 91, 92, 93, 94, 95, 96, 97, 98, 99, 100]);

Link_info = array2d(1..360, 1..4,[1, 2, 1, 500, 2, 1, 1, 500, 1, 11, 1, 500, 11, 1, 1, 500, 2, 3, 1, 500, 3, 2, 1, 500, 2, 12, 1, 500, 12, 2, 1, 500, 3, 4, 1, 500, 4, 3, 1, 500, 3, 13, 1, 500, 13, 3, 1, 500, 4, 5, 1, 500, 5, 4, 1, 500, 4, 14, 1, 500, 14, 4, 1, 500, 5, 6, 1, 500, 6, 5, 1, 500, 5, 15, 1, 500, 15, 5, 1, 500, 6, 7, 1, 500, 7, 6, 1, 500, 6, 16, 1, 500, 16, 6, 1, 500, 7, 8, 1, 500, 8, 7, 1, 500, 7, 17, 1, 500, 17, 7, 1, 500, 8, 9, 1, 500, 9, 8, 1, 500, 8, 18, 1, 500, 18, 8, 1, 500, 9, 10, 1, 500, 10, 9, 1, 500, 9, 19, 1, 500, 19, 9, 1, 500, 10, 20, 1, 500, 20, 10, 1, 500, 11, 12, 1, 500, 12, 11, 1, 500, 11, 21, 1, 500, 21, 11, 1, 500, 12, 13, 1, 500, 13, 12, 1, 500, 12, 22, 1, 500, 22, 12, 1, 500, 13, 14, 1, 500, 14, 13, 1, 500, 13, 23, 1, 500, 23, 13, 1, 500, 14, 15, 1, 500, 15, 14, 1, 500, 14, 24, 1, 500, 24, 14, 1, 500, 15, 16, 1, 500, 16, 15, 1, 500, 15, 25, 1, 500, 25, 15, 1, 500, 16, 17, 1, 500, 17, 16, 1, 500, 16, 26, 1, 500, 26, 16, 1, 500, 17, 18, 1, 500, 18, 17, 1, 500, 17, 27, 1, 500, 27, 17, 1, 500, 18, 19, 1, 500, 19, 18, 1, 500, 18, 28, 1, 500, 28, 18, 1, 500, 19, 20, 1, 500, 20, 19, 1, 500, 19, 29, 1, 500, 29, 19, 1, 500, 20, 30, 1, 500, 30, 20, 1, 500, 21, 22, 1, 500, 22, 21, 1, 500, 21, 31, 1, 500, 31, 21, 1, 500, 22, 23, 1, 500, 23, 22, 1, 500, 22, 32, 1, 500, 32, 22, 1, 500, 23, 24, 1, 500, 24, 23, 1, 500, 23, 33, 1, 500, 33, 23, 1, 500, 24, 25, 1, 500, 25, 24, 1, 500, 24, 34, 1, 500, 34, 24, 1, 500, 25, 26, 1, 500, 26, 25, 1, 500, 25, 35, 1, 500, 35, 25, 1, 500, 26, 27, 1, 500, 27, 26, 1, 500, 26, 36, 1, 500, 36, 26, 1, 500, 27, 28, 1, 500, 28, 27, 1, 500, 27, 37, 1, 500, 37, 27, 1, 500, 28, 29, 1, 500, 29, 28, 1, 500, 28, 38, 1, 500, 38, 28, 1, 500, 29, 30, 1, 500, 30, 29, 1, 500, 29, 39, 1, 500, 39, 29, 1, 500, 30, 40, 1, 500, 40, 30, 1, 500, 31, 32, 1, 500, 32, 31, 1, 500, 31, 41, 1, 500, 41, 31, 1, 500, 32, 33, 1, 500, 33, 32, 1, 500, 32, 42, 1, 500, 42, 32, 1, 500, 33, 34, 1, 500, 34, 33, 1, 500, 33, 43, 1, 500, 43, 33, 1, 500, 34, 35, 1, 500, 35, 34, 1, 500, 34, 44, 1, 500, 44, 34, 1, 500, 35, 36, 1, 500, 36, 35, 1, 500, 35, 45, 1, 500, 45, 35, 1, 500, 36, 37, 1, 500, 37, 36, 1, 500, 36, 46, 1, 500, 46, 36, 1, 500, 37, 38, 1, 500, 38, 37, 1, 500, 37, 47, 1, 500, 47, 37, 1, 500, 38, 39, 1, 500, 39, 38, 1, 500, 38, 48, 1, 500, 48, 38, 1, 500, 39, 40, 1, 500, 40, 39, 1, 500, 39, 49, 1, 500, 49, 39, 1, 500, 40, 50, 1, 500, 50, 40, 1, 500, 41, 42, 1, 500, 42, 41, 1, 500, 41, 51, 1, 500, 51, 41, 1, 500, 42, 43, 1, 500, 43, 42, 1, 500, 42, 52, 1, 500, 52, 42, 1, 500, 43, 44, 1, 500, 44, 43, 1, 500, 43, 53, 1, 500, 53, 43, 1, 500, 44, 45, 1, 500, 45, 44, 1, 500, 44, 54, 1, 500, 54, 44, 1, 500, 45, 46, 1, 500, 46, 45, 1, 500, 45, 55, 1, 500, 55, 45, 1, 500, 46, 47, 1, 500, 47, 46, 1, 500, 46, 56, 1, 500, 56, 46, 1, 500, 47, 48, 1, 500, 48, 47, 1, 500, 47, 57, 1, 500, 57, 47, 1, 500, 48, 49, 1, 500, 49, 48, 1, 500, 48, 58, 1, 500, 58, 48, 1, 500, 49, 50, 1, 500, 50, 49, 1, 500, 49, 59, 1, 500, 59, 49, 1, 500, 50, 60, 1, 500, 60, 50, 1, 500, 51, 52, 1, 500, 52, 51, 1, 500, 51, 61, 1, 500, 61, 51, 1, 500, 52, 53, 1, 500, 53, 52, 1, 500, 52, 62, 1, 500, 62, 52, 1, 500, 53, 54, 1, 500, 54, 53, 1, 500, 53, 63, 1, 500, 63, 53, 1, 500, 54, 55, 1, 500, 55, 54, 1, 500, 54, 64, 1, 500, 64, 54, 1, 500, 55, 56, 1, 500, 56, 55, 1, 500, 55, 65, 1, 500, 65, 55, 1, 500, 56, 57, 1, 500, 57, 56, 1, 500, 56, 66, 1, 500, 66, 56, 1, 500, 57, 58, 1, 500, 58, 57, 1, 500, 57, 67, 1, 500, 67, 57, 1, 500, 58, 59, 1, 500, 59, 58, 1, 500, 58, 68, 1, 500, 68, 58, 1, 500, 59, 60, 1, 500, 60, 59, 1, 500, 59, 69, 1, 500, 69, 59, 1, 500, 60, 70, 1, 500, 70, 60, 1, 500, 61, 62, 1, 500, 62, 61, 1, 500, 61, 71, 1, 500, 71, 61, 1, 500, 62, 63, 1, 500, 63, 62, 1, 500, 62, 72, 1, 500, 72, 62, 1, 500, 63, 64, 1, 500, 64, 63, 1, 500, 63, 73, 1, 500, 73, 63, 1, 500, 64, 65, 1, 500, 65, 64, 1, 500, 64, 74, 1, 500, 74, 64, 1, 500, 65, 66, 1, 500, 66, 65, 1, 500, 65, 75, 1, 500, 75, 65, 1, 500, 66, 67, 1, 500, 67, 66, 1, 500, 66, 76, 1, 500, 76, 66, 1, 500, 67, 68, 1, 500, 68, 67, 1, 500, 67, 77, 1, 500, 77, 67, 1, 500, 68, 69, 1, 500, 69, 68, 1, 500, 68, 78, 1, 500, 78, 68, 1, 500, 69, 70, 1, 500, 70, 69, 1, 500, 69, 79, 1, 500, 79, 69, 1, 500, 70, 80, 1, 500, 80, 70, 1, 500, 71, 72, 1, 500, 72, 71, 1, 500, 71, 81, 1, 500, 81, 71, 1, 500, 72, 73, 1, 500, 73, 72, 1, 500, 72, 82, 1, 500, 82, 72, 1, 500, 73, 74, 1, 500, 74, 73, 1, 500, 73, 83, 1, 500, 83, 73, 1, 500, 74, 75, 1, 500, 75, 74, 1, 500, 74, 84, 1, 500, 84, 74, 1, 500, 75, 76, 1, 500, 76, 75, 1, 500, 75, 85, 1, 500, 85, 75, 1, 500, 76, 77, 1, 500, 77, 76, 1, 500, 76, 86, 1, 500, 86, 76, 1, 500, 77, 78, 1, 500, 78, 77, 1, 500, 77, 87, 1, 500, 87, 77, 1, 500, 78, 79, 1, 500, 79, 78, 1, 500, 78, 88, 1, 500, 88, 78, 1, 500, 79, 80, 1, 500, 80, 79, 1, 500, 79, 89, 1, 500, 89, 79, 1, 500, 80, 90, 1, 500, 90, 80, 1, 500, 81, 82, 1, 500, 82, 81, 1, 500, 81, 91, 1, 500, 91, 81, 1, 500, 82, 83, 1, 500, 83, 82, 1, 500, 82, 92, 1, 500, 92, 82, 1, 500, 83, 84, 1, 500, 84, 83, 1, 500, 83, 93, 1, 500, 93, 83, 1, 500, 84, 85, 1, 500, 85, 84, 1, 500, 84, 94, 1, 500, 94, 84, 1, 500, 85, 86, 1, 500, 86, 85, 1, 500, 85, 95, 1, 500, 95, 85, 1, 500, 86, 87, 1, 500, 87, 86, 1, 500, 86, 96, 1, 500, 96, 86, 1, 500, 87, 88, 1, 500, 88, 87, 1, 500, 87, 97, 1, 500, 97, 87, 1, 500, 88, 89, 1, 500, 89, 88, 1, 500, 88, 98, 1, 500, 98, 88, 1, 500, 89, 90, 1, 500, 90, 89, 1, 500, 89, 99, 1, 500, 99, 89, 1, 500, 90, 100, 1, 500, 100, 90, 1, 500, 91, 92, 1, 500, 92, 91, 1, 500, 92, 93, 1, 500, 93, 92, 1, 500, 93, 94, 1, 500, 94, 93, 1, 500, 94, 95, 1, 500, 95, 94, 1, 500, 95, 96, 1, 500, 96, 95, 1, 500, 96, 97, 1, 500, 97, 96, 1, 500, 97, 98, 1, 500, 98, 97, 1, 500, 98, 99, 1, 500, 99, 98, 1, 500, 99, 100, 1, 500, 100, 99, 1, 500]);

Flow_demands = [1, 1, 1, 1, 1, 1, 1, 1];
s = [1, 1, 1, 1, 1, 1, 1, 1];
t = [100, 100, 100, 100, 100, 100, 100, 100];
Limits = [50, 50, 50, 50, 50, 50, 50, 50];


%Flow_demands = [1];
%s = [1];
%t = [100];
%Limits = [50];
